2 15
174 158 
0 39 33 16 51 64 91 2
1 52 97 60 40 22 59 2
2 81 63 82 34 33 48 1
3 9 92 94 39 58 32 2
4 55 13 31 64 74 68 2
5 22 43 31 89 6 37 2
6 23 26 71 53 83 47 1
7 21 53 53 91 20 83 2
8 20 86 72 53 88 23 1
9 88 71 48 18 3 76 2
10 4 65 89 3 74 68 1
11 56 60 29 71 82 86 2
12 80 13 41 64 60 99 1
13 35 61 84 100 65 69 2
14 92 98 65 24 19 70 1
